% File represents an instance of a Composite Structure problem to be solved by a CP framework
% Created on 2025-03-26 10:41:23.659
T = 58;
n = 16;
m = 24;
edges = [(2, 1),
(6, 5),
(10, 9),
(14, 13),
(2, 3),
(6, 7),
(10, 11),
(14, 15),
(3, 4),
(7, 8),
(11, 12),
(16, 15),
(5, 1),
(9, 5),
(9, 13),
(6, 2),
(10, 6),
(10, 14),
(7, 3),
(11, 7),
(11, 15),
(8, 4),
(12, 8),
(16, 12)];
counts = [|12, 12, 12, 4,
|14, 12, 14, 6,
|14, 10, 14, 6,
|14, 8, 14, 2,
|14, 14, 14, 4,
|16, 14, 16, 6,
|16, 12, 16, 6,
|16, 10, 16, 2,
|14, 16, 14, 8,
|16, 16, 16, 10,
|16, 14, 16, 10,
|16, 12, 16, 6,
|14, 12, 14, 6,
|16, 12, 16, 8,
|16, 10, 16, 8,
|16, 12, 16, 8|];
